nK = 2006;
nT = 6;
nI = 14;
L = 29;
TT = 471;
np = 1;
nc = 3;
b = [34, 33, 44, 32, 42, 60, 29, 32, 35, 50, 23, 34, 69, 64];
d = [60, 73, 92, 78, 87, 139, 67, 143, 62, 120, 89, 122, 135, 122];
m = [2.3, 1.6, 2, 2.1, 1.6, 1.1, 1.4, 2, 2.2, 1.4, 1.2, 1, 2.2, 2.4];
pt = [0.33, 0.35, 0.23, 0.28, 0.23, 0.23];
st = [13.86, 14.7, 9.66, 11.76, 13.57, 13.57];
arc = {<1, 0, 1, 1, 0, 0, 0, [1, 1, 1, 1, 1, 1]>, <2, 1, 2, 1, 0, 0, 0, [1, 1, 1, 1, 1, 1]>, <3, 2, 3, 1, 0, 0, 0, [1, 1, 1, 1, 1, 1]>, <4, 3, 4, 1, 0, 0, 0, [1, 1, 1, 1, 1, 1]>, <5, 4, 5, 1, 0, 0, 0, [1, 1, 1, 1, 1, 1]>, <6, 5, 6, 1, 0, 0, 0, [1, 1, 1, 1, 1, 1]>, <7, 6, 7, 1, 0, 0, 0, [1, 1, 1, 1, 1, 1]>, <8, 7, 8, 1, 0, 0, 0, [1, 1, 1, 1, 1, 1]>, <9, 8, 9, 1, 0, 0, 0, [1, 1, 1, 1, 1, 1]>, <10, 9, 10, 1, 0, 0, 0, [1, 1, 1, 1, 1, 1]>, <11, 10, 11, 1, 0, 0, 0, [1, 1, 1, 1, 1, 1]>, <12, 11, 12, 1, 0, 0, 0, [1, 1, 1, 1, 1, 1]>, <13, 12, 13, 1, 0, 0, 0, [1, 1, 1, 1, 1, 1]>, <14, 13, 14, 1, 0, 0, 0, [1, 1, 1, 1, 1, 1]>, <15, 14, 15, 1, 0, 0, 0, [1, 1, 1, 1, 1, 1]>, <16, 15, 16, 1, 0, 0, 0, [1, 1, 1, 1, 1, 1]>, <17, 16, 17, 1, 0, 0, 0, [1, 1, 1, 1, 1, 1]>, <18, 17, 18, 1, 0, 0, 0, [1, 1, 1, 1, 1, 1]>, <19, 18, 19, 1, 0, 0, 0, [1, 1, 1, 1, 1, 1]>, <20, 19, 20, 1, 0, 0, 0, [1, 1, 1, 1, 1, 1]>, <21, 20, 21, 1, 0, 0, 0, [1, 1, 1, 1, 1, 1]>, <22, 21, 22, 1, 0, 0, 0, [1, 1, 1, 1, 1, 1]>, <23, 22, 23, 1, 0, 0, 0, [1, 1, 1, 1, 1, 1]>, <24, 23, 24, 1, 0, 0, 0, [1, 1, 1, 1, 1, 1]>, <25, 24, 25, 1, 0, 0, 0, [1, 1, 1, 1, 1, 1]>, <26, 25, 26, 1, 0, 0, 0, [1, 1, 1, 1, 1, 1]>, <27, 26, 27, 1, 0, 0, 0, [1, 1, 1, 1, 1, 1]>, <28, 27, 28, 1, 0, 0, 0, [1, 1, 1, 1, 1, 1]>, <29, 28, 29, 1, 0, 0, 0, [1, 1, 1, 1, 1, 1]>, <30, 0, 18, 18, 1, 0, 0, [1, 0, 0, 0, 0, 1]>, <31, 1, 19, 18, 1, 0, 0, [1, 0, 0, 0, 0, 1]>, <32, 2, 20, 18, 1, 0, 0, [1, 0, 0, 0, 0, 1]>, <33, 3, 21, 18, 1, 0, 0, [1, 0, 0, 0, 0, 1]>, <34, 4, 22, 18, 1, 0, 0, [1, 0, 0, 0, 0, 1]>, <35, 5, 23, 18, 1, 0, 0, [1, 0, 0, 0, 0, 1]>, <36, 6, 24, 18, 1, 0, 0, [1, 0, 0, 0, 0, 1]>, <37, 7, 25, 18, 1, 0, 0, [1, 0, 0, 0, 0, 1]>, <38, 8, 26, 18, 1, 0, 0, [1, 0, 0, 0, 0, 1]>, <39, 9, 27, 18, 1, 0, 0, [1, 0, 0, 0, 0, 1]>, <40, 10, 28, 18, 1, 0, 0, [1, 0, 0, 0, 0, 1]>, <41, 11, 29, 18, 1, 0, 0, [1, 0, 0, 0, 0, 1]>, <42, 0, 15, 15, 2, 0, 0, [1, 0, 0, 0, 0, 1]>, <43, 1, 16, 15, 2, 0, 0, [1, 0, 0, 0, 0, 1]>, <44, 2, 17, 15, 2, 0, 0, [1, 0, 0, 0, 0, 1]>, <45, 3, 18, 15, 2, 0, 0, [1, 0, 0, 0, 0, 1]>, <46, 4, 19, 15, 2, 0, 0, [1, 0, 0, 0, 0, 1]>, <47, 5, 20, 15, 2, 0, 0, [1, 0, 0, 0, 0, 1]>, <48, 6, 21, 15, 2, 0, 0, [1, 0, 0, 0, 0, 1]>, <49, 7, 22, 15, 2, 0, 0, [1, 0, 0, 0, 0, 1]>, <50, 8, 23, 15, 2, 0, 0, [1, 0, 0, 0, 0, 1]>, <51, 9, 24, 15, 2, 0, 0, [1, 0, 0, 0, 0, 1]>, <52, 10, 25, 15, 2, 0, 0, [1, 0, 0, 0, 0, 1]>, <53, 11, 26, 15, 2, 0, 0, [1, 0, 0, 0, 0, 1]>, <54, 12, 27, 15, 2, 0, 0, [1, 0, 0, 0, 0, 1]>, <55, 13, 28, 15, 2, 0, 0, [1, 0, 0, 0, 0, 1]>, <56, 14, 29, 15, 2, 0, 0, [1, 0, 0, 0, 0, 1]>, <57, 0, 18, 18, 3, 0, 0, [0, 1, 1, 0, 0, 0]>, <58, 1, 19, 18, 3, 0, 0, [0, 1, 1, 0, 0, 0]>, <59, 2, 20, 18, 3, 0, 0, [0, 1, 1, 0, 0, 0]>, <60, 3, 21, 18, 3, 0, 0, [0, 1, 1, 0, 0, 0]>, <61, 4, 22, 18, 3, 0, 0, [0, 1, 1, 0, 0, 0]>, <62, 5, 23, 18, 3, 0, 0, [0, 1, 1, 0, 0, 0]>, <63, 6, 24, 18, 3, 0, 0, [0, 1, 1, 0, 0, 0]>, <64, 7, 25, 18, 3, 0, 0, [0, 1, 1, 0, 0, 0]>, <65, 8, 26, 18, 3, 0, 0, [0, 1, 1, 0, 0, 0]>, <66, 9, 27, 18, 3, 0, 0, [0, 1, 1, 0, 0, 0]>, <67, 10, 28, 18, 3, 0, 0, [0, 1, 1, 0, 0, 0]>, <68, 11, 29, 18, 3, 0, 0, [0, 1, 1, 0, 0, 0]>, <69, 0, 16, 16, 4, 0, 1, [0, 0, 0, 1, 1, 0]>, <70, 1, 17, 16, 4, 0, 1, [0, 0, 0, 1, 1, 0]>, <71, 2, 18, 16, 4, 0, 1, [0, 0, 0, 1, 1, 0]>, <72, 3, 19, 16, 4, 0, 1, [0, 0, 0, 1, 1, 0]>, <73, 4, 20, 16, 4, 0, 1, [0, 0, 0, 1, 1, 0]>, <74, 5, 21, 16, 4, 0, 1, [0, 0, 0, 1, 1, 0]>, <75, 6, 22, 16, 4, 0, 1, [0, 0, 0, 1, 1, 0]>, <76, 7, 23, 16, 4, 0, 1, [0, 0, 0, 1, 1, 0]>, <77, 8, 24, 16, 4, 0, 1, [0, 0, 0, 1, 1, 0]>, <78, 9, 25, 16, 4, 0, 1, [0, 0, 0, 1, 1, 0]>, <79, 10, 26, 16, 4, 0, 1, [0, 0, 0, 1, 1, 0]>, <80, 11, 27, 16, 4, 0, 1, [0, 0, 0, 1, 1, 0]>, <81, 12, 28, 16, 4, 0, 1, [0, 0, 0, 1, 1, 0]>, <82, 13, 29, 16, 4, 0, 1, [0, 0, 0, 1, 1, 0]>, <83, 0, 15, 15, 5, 0, 0, [0, 1, 1, 0, 0, 0]>, <84, 1, 16, 15, 5, 0, 0, [0, 1, 1, 0, 0, 0]>, <85, 2, 17, 15, 5, 0, 0, [0, 1, 1, 0, 0, 0]>, <86, 3, 18, 15, 5, 0, 0, [0, 1, 1, 0, 0, 0]>, <87, 4, 19, 15, 5, 0, 0, [0, 1, 1, 0, 0, 0]>, <88, 5, 20, 15, 5, 0, 0, [0, 1, 1, 0, 0, 0]>, <89, 6, 21, 15, 5, 0, 0, [0, 1, 1, 0, 0, 0]>, <90, 7, 22, 15, 5, 0, 0, [0, 1, 1, 0, 0, 0]>, <91, 8, 23, 15, 5, 0, 0, [0, 1, 1, 0, 0, 0]>, <92, 9, 24, 15, 5, 0, 0, [0, 1, 1, 0, 0, 0]>, <93, 10, 25, 15, 5, 0, 0, [0, 1, 1, 0, 0, 0]>, <94, 11, 26, 15, 5, 0, 0, [0, 1, 1, 0, 0, 0]>, <95, 12, 27, 15, 5, 0, 0, [0, 1, 1, 0, 0, 0]>, <96, 13, 28, 15, 5, 0, 0, [0, 1, 1, 0, 0, 0]>, <97, 14, 29, 15, 5, 0, 0, [0, 1, 1, 0, 0, 0]>, <98, 0, 16, 16, 6, 0, 1, [1, 1, 0, 0, 0, 0]>, <99, 1, 17, 16, 6, 0, 1, [1, 1, 0, 0, 0, 0]>, <100, 2, 18, 16, 6, 0, 1, [1, 1, 0, 0, 0, 0]>, <101, 3, 19, 16, 6, 0, 1, [1, 1, 0, 0, 0, 0]>, <102, 4, 20, 16, 6, 0, 1, [1, 1, 0, 0, 0, 0]>, <103, 5, 21, 16, 6, 0, 1, [1, 1, 0, 0, 0, 0]>, <104, 6, 22, 16, 6, 0, 1, [1, 1, 0, 0, 0, 0]>, <105, 7, 23, 16, 6, 0, 1, [1, 1, 0, 0, 0, 0]>, <106, 8, 24, 16, 6, 0, 1, [1, 1, 0, 0, 0, 0]>, <107, 9, 25, 16, 6, 0, 1, [1, 1, 0, 0, 0, 0]>, <108, 10, 26, 16, 6, 0, 1, [1, 1, 0, 0, 0, 0]>, <109, 11, 27, 16, 6, 0, 1, [1, 1, 0, 0, 0, 0]>, <110, 12, 28, 16, 6, 0, 1, [1, 1, 0, 0, 0, 0]>, <111, 13, 29, 16, 6, 0, 1, [1, 1, 0, 0, 0, 0]>, <112, 0, 14, 14, 7, 1, 0, [1, 0, 0, 0, 0, 1]>, <113, 1, 15, 14, 7, 1, 0, [1, 0, 0, 0, 0, 1]>, <114, 2, 16, 14, 7, 1, 0, [1, 0, 0, 0, 0, 1]>, <115, 3, 17, 14, 7, 1, 0, [1, 0, 0, 0, 0, 1]>, <116, 4, 18, 14, 7, 1, 0, [1, 0, 0, 0, 0, 1]>, <117, 5, 19, 14, 7, 1, 0, [1, 0, 0, 0, 0, 1]>, <118, 6, 20, 14, 7, 1, 0, [1, 0, 0, 0, 0, 1]>, <119, 7, 21, 14, 7, 1, 0, [1, 0, 0, 0, 0, 1]>, <120, 8, 22, 14, 7, 1, 0, [1, 0, 0, 0, 0, 1]>, <121, 9, 23, 14, 7, 1, 0, [1, 0, 0, 0, 0, 1]>, <122, 10, 24, 14, 7, 1, 0, [1, 0, 0, 0, 0, 1]>, <123, 11, 25, 14, 7, 1, 0, [1, 0, 0, 0, 0, 1]>, <124, 12, 26, 14, 7, 1, 0, [1, 0, 0, 0, 0, 1]>, <125, 13, 27, 14, 7, 1, 0, [1, 0, 0, 0, 0, 1]>, <126, 14, 28, 14, 7, 1, 0, [1, 0, 0, 0, 0, 1]>, <127, 15, 29, 14, 7, 1, 0, [1, 0, 0, 0, 0, 1]>, <128, 0, 15, 15, 8, 0, 1, [0, 0, 0, 0, 1, 1]>, <129, 1, 16, 15, 8, 0, 1, [0, 0, 0, 0, 1, 1]>, <130, 2, 17, 15, 8, 0, 1, [0, 0, 0, 0, 1, 1]>, <131, 3, 18, 15, 8, 0, 1, [0, 0, 0, 0, 1, 1]>, <132, 4, 19, 15, 8, 0, 1, [0, 0, 0, 0, 1, 1]>, <133, 5, 20, 15, 8, 0, 1, [0, 0, 0, 0, 1, 1]>, <134, 6, 21, 15, 8, 0, 1, [0, 0, 0, 0, 1, 1]>, <135, 7, 22, 15, 8, 0, 1, [0, 0, 0, 0, 1, 1]>, <136, 8, 23, 15, 8, 0, 1, [0, 0, 0, 0, 1, 1]>, <137, 9, 24, 15, 8, 0, 1, [0, 0, 0, 0, 1, 1]>, <138, 10, 25, 15, 8, 0, 1, [0, 0, 0, 0, 1, 1]>, <139, 11, 26, 15, 8, 0, 1, [0, 0, 0, 0, 1, 1]>, <140, 12, 27, 15, 8, 0, 1, [0, 0, 0, 0, 1, 1]>, <141, 13, 28, 15, 8, 0, 1, [0, 0, 0, 0, 1, 1]>, <142, 14, 29, 15, 8, 0, 1, [0, 0, 0, 0, 1, 1]>, <143, 0, 16, 16, 9, 0, 0, [0, 0, 1, 1, 0, 0]>, <144, 1, 17, 16, 9, 0, 0, [0, 0, 1, 1, 0, 0]>, <145, 2, 18, 16, 9, 0, 0, [0, 0, 1, 1, 0, 0]>, <146, 3, 19, 16, 9, 0, 0, [0, 0, 1, 1, 0, 0]>, <147, 4, 20, 16, 9, 0, 0, [0, 0, 1, 1, 0, 0]>, <148, 5, 21, 16, 9, 0, 0, [0, 0, 1, 1, 0, 0]>, <149, 6, 22, 16, 9, 0, 0, [0, 0, 1, 1, 0, 0]>, <150, 7, 23, 16, 9, 0, 0, [0, 0, 1, 1, 0, 0]>, <151, 8, 24, 16, 9, 0, 0, [0, 0, 1, 1, 0, 0]>, <152, 9, 25, 16, 9, 0, 0, [0, 0, 1, 1, 0, 0]>, <153, 10, 26, 16, 9, 0, 0, [0, 0, 1, 1, 0, 0]>, <154, 11, 27, 16, 9, 0, 0, [0, 0, 1, 1, 0, 0]>, <155, 12, 28, 16, 9, 0, 0, [0, 0, 1, 1, 0, 0]>, <156, 13, 29, 16, 9, 0, 0, [0, 0, 1, 1, 0, 0]>, <157, 0, 17, 17, 10, 0, 1, [0, 0, 0, 0, 1, 1]>, <158, 1, 18, 17, 10, 0, 1, [0, 0, 0, 0, 1, 1]>, <159, 2, 19, 17, 10, 0, 1, [0, 0, 0, 0, 1, 1]>, <160, 3, 20, 17, 10, 0, 1, [0, 0, 0, 0, 1, 1]>, <161, 4, 21, 17, 10, 0, 1, [0, 0, 0, 0, 1, 1]>, <162, 5, 22, 17, 10, 0, 1, [0, 0, 0, 0, 1, 1]>, <163, 6, 23, 17, 10, 0, 1, [0, 0, 0, 0, 1, 1]>, <164, 7, 24, 17, 10, 0, 1, [0, 0, 0, 0, 1, 1]>, <165, 8, 25, 17, 10, 0, 1, [0, 0, 0, 0, 1, 1]>, <166, 9, 26, 17, 10, 0, 1, [0, 0, 0, 0, 1, 1]>, <167, 10, 27, 17, 10, 0, 1, [0, 0, 0, 0, 1, 1]>, <168, 11, 28, 17, 10, 0, 1, [0, 0, 0, 0, 1, 1]>, <169, 12, 29, 17, 10, 0, 1, [0, 0, 0, 0, 1, 1]>, <170, 0, 14, 14, 11, 0, 0, [1, 1, 0, 0, 0, 0]>, <171, 1, 15, 14, 11, 0, 0, [1, 1, 0, 0, 0, 0]>, <172, 2, 16, 14, 11, 0, 0, [1, 1, 0, 0, 0, 0]>, <173, 3, 17, 14, 11, 0, 0, [1, 1, 0, 0, 0, 0]>, <174, 4, 18, 14, 11, 0, 0, [1, 1, 0, 0, 0, 0]>, <175, 5, 19, 14, 11, 0, 0, [1, 1, 0, 0, 0, 0]>, <176, 6, 20, 14, 11, 0, 0, [1, 1, 0, 0, 0, 0]>, <177, 7, 21, 14, 11, 0, 0, [1, 1, 0, 0, 0, 0]>, <178, 8, 22, 14, 11, 0, 0, [1, 1, 0, 0, 0, 0]>, <179, 9, 23, 14, 11, 0, 0, [1, 1, 0, 0, 0, 0]>, <180, 10, 24, 14, 11, 0, 0, [1, 1, 0, 0, 0, 0]>, <181, 11, 25, 14, 11, 0, 0, [1, 1, 0, 0, 0, 0]>, <182, 12, 26, 14, 11, 0, 0, [1, 1, 0, 0, 0, 0]>, <183, 13, 27, 14, 11, 0, 0, [1, 1, 0, 0, 0, 0]>, <184, 14, 28, 14, 11, 0, 0, [1, 1, 0, 0, 0, 0]>, <185, 15, 29, 14, 11, 0, 0, [1, 1, 0, 0, 0, 0]>, <186, 0, 17, 17, 12, 0, 1, [0, 0, 0, 1, 1, 0]>, <187, 1, 18, 17, 12, 0, 1, [0, 0, 0, 1, 1, 0]>, <188, 2, 19, 17, 12, 0, 1, [0, 0, 0, 1, 1, 0]>, <189, 3, 20, 17, 12, 0, 1, [0, 0, 0, 1, 1, 0]>, <190, 4, 21, 17, 12, 0, 1, [0, 0, 0, 1, 1, 0]>, <191, 5, 22, 17, 12, 0, 1, [0, 0, 0, 1, 1, 0]>, <192, 6, 23, 17, 12, 0, 1, [0, 0, 0, 1, 1, 0]>, <193, 7, 24, 17, 12, 0, 1, [0, 0, 0, 1, 1, 0]>, <194, 8, 25, 17, 12, 0, 1, [0, 0, 0, 1, 1, 0]>, <195, 9, 26, 17, 12, 0, 1, [0, 0, 0, 1, 1, 0]>, <196, 10, 27, 17, 12, 0, 1, [0, 0, 0, 1, 1, 0]>, <197, 11, 28, 17, 12, 0, 1, [0, 0, 0, 1, 1, 0]>, <198, 12, 29, 17, 12, 0, 1, [0, 0, 0, 1, 1, 0]>, <199, 0, 14, 14, 13, 1, 0, [0, 0, 0, 0, 1, 1]>, <200, 1, 15, 14, 13, 1, 0, [0, 0, 0, 0, 1, 1]>, <201, 2, 16, 14, 13, 1, 0, [0, 0, 0, 0, 1, 1]>, <202, 3, 17, 14, 13, 1, 0, [0, 0, 0, 0, 1, 1]>, <203, 4, 18, 14, 13, 1, 0, [0, 0, 0, 0, 1, 1]>, <204, 5, 19, 14, 13, 1, 0, [0, 0, 0, 0, 1, 1]>, <205, 6, 20, 14, 13, 1, 0, [0, 0, 0, 0, 1, 1]>, <206, 7, 21, 14, 13, 1, 0, [0, 0, 0, 0, 1, 1]>, <207, 8, 22, 14, 13, 1, 0, [0, 0, 0, 0, 1, 1]>, <208, 9, 23, 14, 13, 1, 0, [0, 0, 0, 0, 1, 1]>, <209, 10, 24, 14, 13, 1, 0, [0, 0, 0, 0, 1, 1]>, <210, 11, 25, 14, 13, 1, 0, [0, 0, 0, 0, 1, 1]>, <211, 12, 26, 14, 13, 1, 0, [0, 0, 0, 0, 1, 1]>, <212, 13, 27, 14, 13, 1, 0, [0, 0, 0, 0, 1, 1]>, <213, 14, 28, 14, 13, 1, 0, [0, 0, 0, 0, 1, 1]>, <214, 15, 29, 14, 13, 1, 0, [0, 0, 0, 0, 1, 1]>, <215, 0, 14, 14, 14, 0, 1, [0, 0, 1, 1, 0, 0]>, <216, 1, 15, 14, 14, 0, 1, [0, 0, 1, 1, 0, 0]>, <217, 2, 16, 14, 14, 0, 1, [0, 0, 1, 1, 0, 0]>, <218, 3, 17, 14, 14, 0, 1, [0, 0, 1, 1, 0, 0]>, <219, 4, 18, 14, 14, 0, 1, [0, 0, 1, 1, 0, 0]>, <220, 5, 19, 14, 14, 0, 1, [0, 0, 1, 1, 0, 0]>, <221, 6, 20, 14, 14, 0, 1, [0, 0, 1, 1, 0, 0]>, <222, 7, 21, 14, 14, 0, 1, [0, 0, 1, 1, 0, 0]>, <223, 8, 22, 14, 14, 0, 1, [0, 0, 1, 1, 0, 0]>, <224, 9, 23, 14, 14, 0, 1, [0, 0, 1, 1, 0, 0]>, <225, 10, 24, 14, 14, 0, 1, [0, 0, 1, 1, 0, 0]>, <226, 11, 25, 14, 14, 0, 1, [0, 0, 1, 1, 0, 0]>, <227, 12, 26, 14, 14, 0, 1, [0, 0, 1, 1, 0, 0]>, <228, 13, 27, 14, 14, 0, 1, [0, 0, 1, 1, 0, 0]>, <229, 14, 28, 14, 14, 0, 1, [0, 0, 1, 1, 0, 0]>, <230, 15, 29, 14, 14, 0, 1, [0, 0, 1, 1, 0, 0]>};
